30 1 3
238 941 374 993 80 96 125 225 291 667 886 746 657 726 196 899 195 88 433 723 292 80 862 95 877 826 377 252 797 471 
314 34 412 687 26 491 783 150 715 73 817 601 819 473 326 14 371 521 101 804 244 393 884 105 487 761 930 864 12 726 
335 326 760 746 13 785 237 795 935 952 868 752 552 686 224 878 700 595 398 801 399 641 193 283 745 680 44 675 544 56 
4010 8780 3810 1600 6240 3940 9450 8600 1890 8790 8120 560 6300 3630 7420 8540 2400 4410 4490 6380 2420 8480 2780 4350 1300 230 1140 1730 6970 6570 
72660
